0 0 0 0
0 1 1 0
0 2 0 0
0 3 0 0
0 4 0 3
0 5 0 2
0 6 0 3
0 7 0 3
0 8 0 8
0 9 0 8
0 10 0 9
0 11 1 6
0 12 0 8
0 13 0 8
0 14 0 6
0 15 0 8
0 16 0 8
0 17 0 9
0 18 0 12
0 19 0 13
0 20 0 12
0 21 0 14
0 22 0 21
0 23 0 20
0 24 1 12
0 25 1 20
0 26 0 20
0 27 0 25
0 28 0 26
0 29 0 24
0 30 0 22
0 31 0 29
